1523.68
0 70 20 12 40 6 2 47 29 34 0
0 15 71 62 56 49 18 9 72 10 14 17 0
0 24 1 22 21 5 13 27 46 26 0
0 38 31 55 39 32 33 30 36 52 0
0 41 42 43 23 44 25 66 4 51 0
0 65 35 8 54 57 37 28 74 45 68 3 0
0 60 69 61 64 73 63 16 50 58 59 0
0 11 53 19 7 67 75 48 0
